NAME : pairopt.-190067.tour
COMMENT : Length = -190067
COMMENT : Found by LKH-3 [Keld Helsgaun] Fri Mar 28 08:36:38 2025
TYPE : TOUR
DIMENSION : 18
TOUR_SECTION
1
3
5
10
9
17
14
11
15
6
18
2
16
13
8
12
7
4
-1
EOF
